<DOCUMENT>
<COLORDEN>-1</COLORDEN>
<TIPOORDEN>-1</TIPOORDEN>
<FILASPAGINA>0</FILASPAGINA>
<VISIBILIDAD>
	<VISIBLECOLUMNA name="idarticulo" >0</VISIBLECOLUMNA>
	<VISIBLECOLUMNA name="codigocompletoarticulo" >1</VISIBLECOLUMNA>
	<VISIBLECOLUMNA name="nomarticulo" >0</VISIBLECOLUMNA>
	<VISIBLECOLUMNA name="idlfacturap" >0</VISIBLECOLUMNA>
	<VISIBLECOLUMNA name="desclfacturap" >1</VISIBLECOLUMNA>
	<VISIBLECOLUMNA name="cantlfacturap" >1</VISIBLECOLUMNA>
	<VISIBLECOLUMNA name="pvplfacturap" >1</VISIBLECOLUMNA>
	<VISIBLECOLUMNA name="ivalfacturap" >0</VISIBLECOLUMNA>
	<VISIBLECOLUMNA name="reqeqlfacturap" >0</VISIBLECOLUMNA>
	<VISIBLECOLUMNA name="descuentolfacturap" >0</VISIBLECOLUMNA>
	<VISIBLECOLUMNA name="idfacturap" >0</VISIBLECOLUMNA>
	<VISIBLECOLUMNA name="ordenlfacturap" >0</VISIBLECOLUMNA>
</VISIBILIDAD>
<HORIZONTALHEADER>AAAA/wAAAAAAAAABAAAAAAAAAAsAAAAAAAAAAAAAAAAMCQwAAAAEAAAACwAAAGQAAAAKAAAAZAAAAAMAAABkAAAAAAAAAGQAAAMgAAAADAEBAQAAAAAAAAAAAAAAAABk/////wAAAIQAAAAAAAAABgAAAAAAAAABAAAAAAAAAMgAAAACAAAAAAAAAAAAAAABAAAAAAAAAlgAAAAGAAAAAAAAAAAAAAABAAAAAAAAAAAAAAABAAAAAA==</HORIZONTALHEADER>
<COLUMNASHORIZONTALHEADER>AAAA/wAAAAAAAAABAAAAAQAAAAQAAAAAAAAAAAAAAAAEDAAAAAIAAAADAAAAAAAAAAIAAAAAAAAA2QAAAAQAAQEAAAAAAAAAAAABAAAAZP////8AAACEAAAAAAAAAAMAAAB1AAAAAQAAAAMAAABkAAAAAQAAAAAAAAAAAAAAAgAAAAA=</COLUMNASHORIZONTALHEADER>
<ORDENCOLUMNAS>
	<ORDENCOLUMNA name="idarticulo" >0</ORDENCOLUMNA>
	<ORDENCOLUMNA name="codigocompletoarticulo" >1</ORDENCOLUMNA>
	<ORDENCOLUMNA name="nomarticulo" >2</ORDENCOLUMNA>
	<ORDENCOLUMNA name="idlfacturap" >3</ORDENCOLUMNA>
	<ORDENCOLUMNA name="desclfacturap" >4</ORDENCOLUMNA>
	<ORDENCOLUMNA name="cantlfacturap" >5</ORDENCOLUMNA>
	<ORDENCOLUMNA name="pvplfacturap" >6</ORDENCOLUMNA>
	<ORDENCOLUMNA name="ivalfacturap" >7</ORDENCOLUMNA>
	<ORDENCOLUMNA name="reqeqlfacturap" >8</ORDENCOLUMNA>
	<ORDENCOLUMNA name="descuentolfacturap" >9</ORDENCOLUMNA>
	<ORDENCOLUMNA name="idfacturap" >10</ORDENCOLUMNA>
	<ORDENCOLUMNA name="ordenlfacturap" >11</ORDENCOLUMNA>
</ORDENCOLUMNAS>
<VISIBILIDADMENU>1</VISIBILIDADMENU>
</DOCUMENT>
